Linux optc-09-15 4.15.0-58-generic #64-Ubuntu SMP Tue Aug 6 11:12:41 UTC 2019 x86_64 x86_64 x86_64 GNU/Linux

top - 18:07:28 up 1 day,  8:08,  0 users,  load average: 0,85, 0,97, 0,99
Tasks: 292 gesamt,   1 laufend, 149 schlafend,   0 gestoppt,   0 Zombie
%CPU(s):  7,4 be,  0,3 sy,  0,0 ni, 92,3 un,  0,0 wa,  0,0 hi,  0,0 si,  0,0 st
KiB Spch : 97514992 gesamt, 95540208 frei,   646552 belegt,  1328232 Puff/Cache
KiB Swap:  8388604 gesamt,  8388604 frei,        0 belegt. 96126720 verfü Spch 

  PID USER      PR  NI    VIRT    RES    SHR S  %CPU %MEM     ZEIT+ BEFEHL
    1 root      20   0  233868   9476   6784 S   0,0  0,0   0:10.70 systemd
    2 root      20   0       0      0      0 S   0,0  0,0   0:00.12 kthreadd
    3 root      20   0       0      0      0 I   0,0  0,0   0:01.93 kworker/0:0
    4 root       0 -20       0      0      0 I   0,0  0,0   0:00.00 kworker/0:+
    6 root      20   0       0      0      0 I   0,0  0,0   0:00.00 kworker/u3+
    7 root       0 -20       0      0      0 I   0,0  0,0   0:00.00 mm_percpu_+
    8 root      20   0       0      0      0 S   0,0  0,0   0:00.01 ksoftirqd/0
    9 root      20   0       0      0      0 I   0,0  0,0   0:11.66 rcu_sched

hard time limit: 04:10:00
hard mem limit: 55100

SLURM jobID: 2182392

@01 /nfs/optimi/kombadon/IP/miplib2017/peg-solitaire-a3.mps.gz ===========
-----------------------------
Do 22. Aug 18:07:28 CEST 2019
-----------------------------
@03 1566490048
@05 7200
SCIP version 6.0.0 [precision: 8 byte] [memory: block] [mode: optimized] [LP solver: CPLEX 12.8.0.0] [GitHash: 41ab6e0014]
Copyright (C) 2002-2018 Konrad-Zuse-Zentrum fuer Informationstechnik Berlin (ZIB)

External codes: 
  Readline 7.0         GNU library for command line editing (gnu.org/s/readline)
  CPLEX 12.8.0.0       Linear Programming Solver developed by IBM (www.cplex.com)
  CppAD 20180000.0     Algorithmic Differentiation of C++ algorithms developed by B. Bell (www.coin-or.org/CppAD)
  ZLIB 1.2.11          General purpose compression library by J. Gailly and M. Adler (zlib.net)
  GMP 6.1.2            GNU Multiple Precision Arithmetic Library developed by T. Granlund (gmplib.org)
  bliss 0.73p          Computing Graph Automorphism Groups by T. Junttila and P. Kaski (http://www.tcs.hut.fi/Software/bliss/)

user parameter file <scip.set> not found - using default parameters

SCIP> 
SCIP> set load /home/optimi/bzfhende/opti/scip-opti/check/../settings/enable_treeeprofile.set
loaded parameter file </home/optimi/bzfhende/opti/scip-opti/check/../settings/enable_treeprofile.set>
SCIP> set misc referencevalue 1
misc/referencevalue = 1
SCIP> set limits time 7200
limits/time = 7200
SCIP> set limits nodes 2100000000
limits/nodes = 2100000000
SCIP> set limits memory 50000
limits/memory = 50000
SCIP> set lp advanced threads 1
lp/threads = 1
SCIP> set timing clocktype 1
timing/clocktype = 1
SCIP> set display freq 10000
display/freq = 10000
SCIP> set memory savefac 1.0
memory/savefac = 1
SCIP> set save /home/optimi/bzfhende/opti/scip-opti/check/treesize.estimation.jouurnal.3/bzfhende.miplib2017.168_peg-solitaire-a3.scip.M640.enable_treeprofile.sett
saved parameter file </home/optimi/bzfhende/opti/scip-opti/check/treesize.estimation.journal.3/bzfhende.miplib2017.168_peg-solitaire-a3.scip.M640.enable_treeprofile.set>
SCIP> read /nfs/optimi/kombadon/IP/miplib2017/peg-solitaire-a3.mps.gz

read problem </nfs/optimi/kombadon/IP/miplib2017/peg-solitaire-a3.mps.gz>
============

original problem has 4552 variables (4552 bin, 0 int, 0 impl, 0 cont) and 4587 constraints
SCIP> display parameters

number of parameters = 2448
non-default parameter settings:
display/freq = 10000
limits/time = 7200
limits/nodes = 2100000000
limits/memory = 50000
lp/threads = 1
memory/savefac = 1
misc/referencevalue = 1
presolving/maxrestarts = 0
estimates/profile/enabled = TRUE
estimates/profile/maxdepthfactor = 10
estimates/profile/freq = 0

SCIP> optimize

Activating tree profile data collection
presolving:
(round 1, fast)       248 del vars, 167 del conss, 0 add conss, 160 chg bounds, 90 chg sides, 0 chg coeffs, 0 upgd conss, 0 impls, 3079 clqs
(round 2, fast)       421 del vars, 282 del conss, 0 add conss, 188 chg bounds, 99 chg sides, 6 chg coeffs, 0 upgd conss, 0 impls, 3026 clqs
(round 3, fast)       517 del vars, 358 del conss, 0 add conss, 201 chg bounds, 117 chg sides, 23 chg coeffs, 0 upgd conss, 0 impls, 3015 clqs
(round 4, fast)       542 del vars, 381 del conss, 0 add conss, 203 chg bounds, 131 chg sides, 37 chg coeffs, 0 upgd conss, 0 impls, 3025 clqs
(round 5, fast)       544 del vars, 383 del conss, 0 add conss, 203 chg bounds, 133 chg sides, 39 chg coeffs, 0 upgd conss, 0 impls, 3028 clqs
(round 6, exhaustive) 544 del vars, 383 del conss, 0 add conss, 203 chg bounds, 133 chg sides, 39 chg coeffs, 3019 upgd conss, 0 impls, 3028 clqs
(round 7, medium)     545 del vars, 3317 del conss, 8779 add conss, 203 chg bounds, 133 chg sides, 45 chg coeffs, 3019 upgd conss, 0 impls, 8868 clqs
   (0.2s) probing: 66/4170 (1.6%) - 1 fixings, 0 aggregations, 279 implications, 0 bound changes
   (0.2s) probing aborted: 50/50 successive totally useless probings
presolving (8 rounds: 8 fast, 3 medium, 2 exhaustive):
 546 deleted vars, 3323 deleted constraints, 8779 added constraints, 203 tightened bounds, 0 added holes, 133 changed sides, 45 changed coefficients
 0 implications, 9144 cliques
presolved problem has 4169 variables (4169 bin, 0 int, 0 impl, 0 cont) and 10043 constraints
   8858 constraints of type <setppc>
   1185 constraints of type <linear>
transformed objective value is always integral (scale: 1)
Presolving Time: 0.15

 time | node  | left  |LP iter|LP it/n| mem |mdpt |frac |vars |cons |cols |rows |cuts |confs|strbr|  dualbound   | primalbound  |  gap   
  2.1s|     1 |     0 | 12289 |     - |  61M|   0 | 993 |4169 |  10k|4169 |  10k|   0 | 106 |   0 | 1.000000e+00 |      --      |    Inf 
 21.8s|     1 |     0 | 62943 |     - |  70M|   0 |1025 |4169 |  10k|4169 |  10k|   3 | 107 |   0 | 1.000000e+00 |      --      |    Inf 
 24.9s|     1 |     0 | 70527 |     - |  71M|   0 | 920 |4169 |  10k|4169 |  10k|   6 | 110 |   0 | 1.000000e+00 |      --      |    Inf 
 27.4s|     1 |     0 | 76539 |     - |  72M|   0 |1101 |4169 |  10k|4169 |  10k|  14 | 111 |   0 | 1.000000e+00 |      --      |    Inf 
 29.4s|     1 |     0 | 81336 |     - |  74M|   0 | 945 |4169 |  10k|4169 |  10k|  21 | 113 |   0 | 1.000000e+00 |      --      |    Inf 
 31.3s|     1 |     0 | 85942 |     - |  75M|   0 |1139 |4169 |  10k|4169 |  10k|  29 | 114 |   0 | 1.000000e+00 |      --      |    Inf 
 33.2s|     1 |     0 | 90200 |     - |  77M|   0 |1282 |4169 |  10k|4169 |  10k|  37 | 115 |   0 | 1.000000e+00 |      --      |    Inf 
 35.1s|     1 |     0 | 94540 |     - |  80M|   0 | 984 |4169 |  10k|4169 |  10k|  40 | 116 |   0 | 1.000000e+00 |      --      |    Inf 
 36.2s|     1 |     0 | 96528 |     - |  81M|   0 | 963 |4169 |  10k|4169 |  10k|  47 | 118 |   0 | 1.000000e+00 |      --      |    Inf 
 38.0s|     1 |     0 |100538 |     - |  83M|   0 | 964 |4169 |  10k|4169 |  10k|  55 | 119 |   0 | 1.000000e+00 |      --      |    Inf 
 40.5s|     1 |     0 |106343 |     - |  84M|   0 | 980 |4169 |  10k|4169 |  10k|  63 | 120 |   0 | 1.000000e+00 |      --      |    Inf 
 42.0s|     1 |     0 |110308 |     - |  86M|   0 |1081 |4169 |  10k|4169 |  10k|  65 | 121 |   0 | 1.000000e+00 |      --      |    Inf 
 44.6s|     1 |     0 |117056 |     - |  87M|   0 |1076 |4169 |  10k|4169 |  10k|  68 | 122 |   0 | 1.000000e+00 |      --      |    Inf 
SCIP nodes: 1 Estimation: -1
 57.5s|     1 |     2 |117056 |     - |  87M|   0 |1076 |4169 |  10k|4169 |  10k|  68 | 123 |  37 | 1.000000e+00 |      --      |    Inf 
   (57.8s) symmetry computation started: requiring (bin +, int -, cont -), (fixed: bin -, int +, cont -)
   (57.8s) no symmetry present
SCIP nodes: 2 Estimation: -1
SCIP nodes: 4 Estimation: -1
SCIP nodes: 8 Estimation: -1
SCIP nodes: 16 Estimation: -1
SCIP nodes: 32 Estimation: -1
SCIP nodes: 64 Estimation: -1
SCIP nodes: 128 Estimation: -1
Report 1
Time Elapsed: 311.50
  Tree Data        : 261 nodes (146 visited, 130 inner, 16 leaves, 115 open), progress: 0.0313
Tree Estimation    :       estim       value       trend  resolution      smooth
  wbe              :    30416717           -           -           -           -
  tree profile     :          -1           -           -           -           -
  gap              :         292     0.00000     0.00000           1         289
  progress         :         667     0.03125     0.00305           1         570
  leaf-frequency   :         548     0.10616     0.00152           1         539
  ssg              :         390     1.00000    -0.00557           1         371
  open-nodes       :         292   115.00000     6.80447           1         289
End of Report 1

SCIP nodes: 256 Estimation: -1
SCIP nodes: 512 Estimation: -1
SCIP nodes: 1024 Estimation: 6.48922e+09
SCIP nodes: 2048 Estimation: 3.28396e+09
SCIP nodes: 4096 Estimation: 1.04344e+12
SCIP nodes: 8192 Estimation: 1.53695e+11
 5673s| 10000 |  2456 | 14219k|1410.4 | 183M|  83 |  60 |4169 |  11k|4169 |  10k| 924 |  15k|7759 | 1.000000e+00 |      --      |    Inf 

SCIP Status        : solving was interrupted [time limit reached]
Solving Time (sec) : 7200.00
Solving Nodes      : 15254
Primal Bound       : +1.00000000000000e+20 (0 solutions)
Dual Bound         : +1.00000000000001e+00
Gap                : infinite

SCIP> display statistics

SCIP Status        : solving was interrupted [time limit reached]
Total Time         :    7200.02
  solving          :    7200.00
  presolving       :       0.15 (included in solving)
  reading          :       0.02
  copying          :       0.10 (5 #copies) (minimal 0.01, maximal 0.03, average 0.02)
Original Problem   :
  Problem name     : peg-solitaire-a3
  Variables        : 4552 (4552 binary, 0 integer, 0 implicit integer, 0 continuous)
  Constraints      : 4587 initial, 4587 maximal
  Objective        : minimize, 37 non-zeros (abs.min = 1, abs.max = 1)
Presolved Problem  :
  Problem name     : t_peg-solitaire-a3
  Variables        : 4169 (4169 binary, 0 integer, 0 implicit integer, 0 continuous)
  Constraints      : 10043 initial, 12789 maximal
  Objective        : minimize, 37 non-zeros (abs.min = 1, abs.max = 1)
Presolvers         :   ExecTime  SetupTime  Calls  FixedVars   AggrVars   ChgTypes  ChgBounds   AddHoles    DelCons    AddCons   ChgSides   ChgCoefs
  boundshift       :       0.00       0.00      0          0          0          0          0          0          0          0          0          0
  convertinttobin  :       0.00       0.00      0          0          0          0          0          0          0          0          0          0
  domcol           :       0.01       0.00      1          0          0          0          0          0          0          0          0          0
  dualagg          :       0.00       0.00      0          0          0          0          0          0          0          0          0          0
  dualcomp         :       0.00       0.00      0          0          0          0          0          0          0          0          0          0
  dualinfer        :       0.00       0.00      0          0          0          0          0          0          0          0          0          0
  gateextraction   :       0.00       0.00      0          0          0          0          0          0          0          0          0          0
  implics          :       0.00       0.00      3          0          0          0          0          0          0          0          0          0
  inttobinary      :       0.00       0.00      0          0          0          0          0          0          0          0          0          0
  qpkktref         :       0.00       0.00      0          0          0          0          0          0          0          0          0          0
  redvub           :       0.00       0.00      0          0          0          0          0          0          0          0          0          0
  sparsify         :       0.02       0.00      1          0          0          0          0          0          0          0          0          0
  stuffing         :       0.00       0.00      0          0          0          0          0          0          0          0          0          0
  symbreak         :       0.00       0.00      0          0          0          0          0          0          0          0          0          0
  symmetry         :       0.00       0.00      0          0          0          0          0          0          0          0          0          0
  trivial          :       0.00       0.00      8        163          0          0          0          0          0          0          0          0
  tworowbnd        :       0.00       0.00      0          0          0          0          0          0          0          0          0          0
  dualfix          :       0.00       0.00      8          0          0          0          0          0          0          0          0          0
  genvbounds       :       0.00       0.00      0          0          0          0          0          0          0          0          0          0
  orbitalfixing    :       0.00       0.00      0          0          0          0          0          0          0          0          0          0
  probing          :       0.04       0.00      1          1          0          0          0          0          0          0          0          0
  pseudoobj        :       0.00       0.00      0          0          0          0          0          0          0          0          0          0
  vbounds          :       0.00       0.00      2          0          0          0          0          0          0          0          0          0
  knapsack         :       0.02       0.00      2          1          0          0          0          0       2934       8779          0          6
  setppc           :       0.02       0.00      5          0          0          0          0          0          6          0          0          0
  linear           :       0.03       0.00     10        203         15          0        203          0        383          0        133         39
  logicor          :       0.00       0.00      0          0          0          0          0          0          0          0          0          0
  benders          :       0.00       0.00      0          0          0          0          0          0          0          0          0          0
  components       :       0.00       0.00      1          0          0          0          0          0          0          0          0          0
  root node        :          -          -      -          0          -          -          0          -          -          -          -          -
Constraints        :     Number  MaxNumber  #Separate #Propagate    #EnfoLP    #EnfoRelax  #EnfoPS    #Check   #ResProp    Cutoffs    DomReds       Cuts    Applied      Conss   Children
  benderslp        :          0          0          0          0       9934          0          0        738          0          0          0          0          0          0          0
  integral         :          0          0          0          0       9934          0          0        738          0          0       4460          0          0       2236      18488
  knapsack         :          0+        63          0     102482          0          0          0          0     424990         91      86635          0          0          0          0
  setppc           :       8858+      9136         12     107513          0          0          0        734    2671264        167     299463          4          2          0          0
  linear           :       1185+      1188         12     107346          0          0          0          0     785687        489      76103          0          0          0          0
  logicor          :          0+      2605         12      32735          0          0          0          0     276655         49       6683          2          0          0          0
  benders          :          0          0          0          0          0          0          0          0          0          0          0          0          0          0          0
  countsols        :          0          0          0          0          0          0          0          0          0          0          0          0          0          0          0
  components       :          0          0          0          0          0          0          0          0          0          0          0          0          0          0          0
Constraint Timings :  TotalTime  SetupTime   Separate  Propagate     EnfoLP     EnfoPS     EnfoRelax   Check    ResProp    SB-Prop
  benderslp        :       0.00       0.00       0.00       0.00       0.00       0.00       0.00       0.00       0.00       0.00
  integral         :    1726.24       0.00       0.00       0.00    1726.24       0.00       0.00       0.00       0.00       0.00
  knapsack         :       2.32       0.00       0.00       0.21       0.00       0.00       0.00       0.00       1.85       0.26
  setppc           :       3.51       0.00       0.00       0.78       0.00       0.00       0.00       0.03       1.70       1.00
  linear           :       2.15       0.00       0.27       0.51       0.00       0.00       0.00       0.00       0.95       0.42
  logicor          :       0.97       0.00       0.00       0.34       0.00       0.00       0.00       0.00       0.51       0.12
  benders          :       0.00       0.00       0.00       0.00       0.00       0.00       0.00       0.00       0.00       0.00
  countsols        :       0.00       0.00       0.00       0.00       0.00       0.00       0.00       0.00       0.00       0.00
  components       :       0.04       0.00       0.00       0.01       0.00       0.00       0.00       0.00       0.00       0.03
Propagators        : #Propagate   #ResProp    Cutoffs    DomReds
  dualfix          :          1          0          0          0
  genvbounds       :          0          0          0          0
  nlobbt           :          0          0          0          0
  obbt             :          0          0          0          0
  orbitalfixing    :          1          0          0          0
  probing          :          0          0          0          0
  pseudoobj        :      68167          0          0          0
  redcost          :         14          0          0          0
  rootredcost      :          0          0          0          0
  vbounds          :     117373          0          0          0
Propagator Timings :  TotalTime  SetupTime   Presolve  Propagate    ResProp    SB-Prop
  dualfix          :       0.00       0.00       0.00       0.00       0.00       0.00
  genvbounds       :       0.11       0.00       0.00       0.09       0.00       0.02
  nlobbt           :       0.00       0.00       0.00       0.00       0.00       0.00
  obbt             :       0.00       0.00       0.00       0.00       0.00       0.00
  orbitalfixing    :       0.08       0.00       0.00       0.07       0.00       0.01
  probing          :       0.04       0.00       0.04       0.00       0.00       0.00
  pseudoobj        :       0.11       0.00       0.00       0.09       0.00       0.02
  redcost          :       0.11       0.00       0.00       0.08       0.00       0.03
  rootredcost      :       0.09       0.00       0.00       0.06       0.00       0.03
  vbounds          :       1.22       0.00       0.00       1.19       0.00       0.03
Conflict Analysis  :       Time      Calls    Success    DomReds  Conflicts   Literals    Reconvs ReconvLits   Dualrays   Nonzeros   LP Iters   (pool size: [10000,10000])
  propagation      :       0.32        748        660          -       4767      187.9         87       59.5          -          -          -
  infeasible LP    :      15.73       6154       3436          -     113522      516.7        114       32.2        205      283.1          0
  bound exceed. LP :       0.00          0          0          -          0        0.0          0        0.0          0        0.0          0
  strong branching :       0.00          0          0          -          0        0.0          0        0.0          -          -          0
  pseudo solution  :       0.00          0          0          -          0        0.0          0        0.0          -          -          -
  applied globally :       0.36          -          -          0      25261      354.2          -          -        205          -          -
  applied locally  :          -          -          -          0          0        0.0          -          -          0          -          -
Separators         :   ExecTime  SetupTime      Calls    Cutoffs    DomReds       Cuts    Applied      Conss
  cut pool         :       0.19                  1415          -          -        838          -          -    (maximal pool size: 610)
  aggregation      :       0.72       0.00        322          0          0          0          0          0
  cgmip            :       0.00       0.00          0          0          0          0          0          0
  clique           :       0.22       0.00         12          0          0          0         37          0
  closecuts        :       0.00       0.00          0          0          0          0          0          0
  cmir             :       0.00       0.00          0          0          0          0          0          0
  convexproj       :       0.00       0.00          0          0          0          0          0          0
  disjunctive      :       0.00       0.00          0          0          0          0          0          0
  eccuts           :       0.00       0.00          0          0          0          0          0          0
  flowcover        :       0.00       0.00          0          0          0          0          0          0
  gauge            :       0.00       0.00          0          0          0          0          0          0
  gomory           :      29.21       0.00        320          0          0        240        108          0
  impliedbounds    :       0.09       0.00        322          0          0          0         32          0
  intobj           :       0.00       0.00          0          0          0          0          0          0
  mcf              :       0.00       0.00          1          0          0          0          0          0
  oddcycle         :       0.00       0.00          0          0          0          0          0          0
  rapidlearning    :       0.00       0.00          0          0          0          0          0          0
  strongcg         :      22.46       0.00        322          0          0        117          7          0
  zerohalf         :       5.54       0.00        322          0          0        621        818          0
Pricers            :   ExecTime  SetupTime      Calls       Vars
  problem variables:       0.00          -          0          0
Branching Rules    :   ExecTime  SetupTime   BranchLP  BranchExt   BranchPS    Cutoffs    DomReds       Cuts      Conss   Children
  allfullstrong    :       0.00       0.00          0          0          0          0          0          0          0          0
  cloud            :       0.00       0.00          0          0          0          0          0          0          0          0
  distribution     :       0.00       0.00          0          0          0          0          0          0          0          0
  fullstrong       :       0.00       0.00          0          0          0          0          0          0          0          0
  inference        :       0.00       0.00          0          0          0          0          0          0          0          0
  leastinf         :       0.00       0.00          0          0          0          0          0          0          0          0
  lookahead        :       0.00       0.00          0          0          0          0          0          0          0          0
  mostinf          :       0.00       0.00          0          0          0          0          0          0          0          0
  multaggr         :       0.00       0.00          0          0          0          0          0          0          0          0
  nodereopt        :       0.00       0.00          0          0          0          0          0          0          0          0
  pscost           :       0.00       0.00          0          0          0          0          0          0          0          0
  random           :       0.00       0.00          0          0          0          0          0          0          0          0
  relpscost        :    1726.22       0.00       9934          0          0          0       4460          0       2795      18488
Primal Heuristics  :   ExecTime  SetupTime      Calls      Found       Best
  LP solutions     :       0.00          -          -          0          0
  relax solutions  :       0.00          -          -          0          0
  pseudo solutions :       0.00          -          -          0          0
  strong branching :       0.05          -          -          0          0
  actconsdiving    :       0.00       0.00          0          0          0
  alns             :       4.97       0.00          5          0          0
  bound            :       0.00       0.00          0          0          0
  clique           :       0.01       0.00          1          0          0
  coefdiving       :       0.06       0.00          2          0          0
  completesol      :       0.00       0.00          0          0          0
  conflictdiving   :       0.00       0.00          0          0          0
  crossover        :       0.00       0.00          0          0          0
  dins             :       0.00       0.00          0          0          0
  distributiondivin:       1.28       0.00          2          0          0
  dualval          :       0.00       0.00          0          0          0
  farkasdiving     :       0.00       0.00          0          0          0
  feaspump         :      17.41       0.00          1          0          0
  fixandinfer      :       0.00       0.00          0          0          0
  fracdiving       :       4.71       0.00          2          0          0
  gins             :       0.00       0.00          0          0          0
  guideddiving     :       0.00       0.00          0          0          0
  indicator        :       0.01       0.00          0          0          0
  intdiving        :       0.00       0.00          0          0          0
  intshifting      :       0.00       0.00          0          0          0
  linesearchdiving :       0.49       0.00          2          0          0
  localbranching   :       0.00       0.00          0          0          0
  locks            :       0.01       0.00          1          0          0
  lpface           :       0.02       0.00          0          0          0
  mpec             :       0.00       0.00          0          0          0
  multistart       :       0.00       0.00          0          0          0
  mutation         :       0.00       0.00          0          0          0
  nlpdiving        :       0.00       0.00          0          0          0
  objpscostdiving  :       1.75       0.00          1          0          0
  octane           :       0.00       0.00          0          0          0
  ofins            :       0.02       0.00          0          0          0
  oneopt           :       0.01       0.00          0          0          0
  proximity        :       0.00       0.00          0          0          0
  pscostdiving     :       3.66       0.00          2          0          0
  randrounding     :       0.11       0.00        744          0          0
  rens             :       0.18       0.00          1          0          0
  reoptsols        :       0.00       0.00          0          0          0
  repair           :       0.00       0.00          0          0          0
  rins             :       0.00       0.00          0          0          0
  rootsoldiving    :       7.83       0.00          1          0          0
  rounding         :       0.51       0.00       1390          0          0
  shiftandpropagate:       0.02       0.00          1          0          0
  shifting         :       0.22       0.00        480          0          0
  simplerounding   :       0.01       0.00          0          0          0
  subnlp           :       0.00       0.00          0          0          0
  trivial          :       0.00       0.00          2          0          0
  trivialnegation  :       0.00       0.00          0          0          0
  trysol           :       0.00       0.00          0          0          0
  twoopt           :       0.00       0.00          0          0          0
  undercover       :       0.00       0.00          0          0          0
  vbounds          :       0.07       0.00          1          0          0
  veclendiving     :       0.61       0.00          2          0          0
  zeroobj          :       0.00       0.00          0          0          0
  zirounding       :       0.08       0.00       1000          0          0
  other solutions  :          -          -          -          0          -
Diving Statistics  :      Calls      Nodes   LP Iters Backtracks  Conflicts   MinDepth   MaxDepth   AvgDepth  RoundSols  NLeafSols  MinSolDpt  MaxSolDpt  AvgSolDpt
  actconsdiving    :          0          -          -          -          -          -          -          -          -          -          -          -          -
  coefdiving       :          2        137        153          2         24         74        105       89.5          0          -          -          -          -
  conflictdiving   :          0          -          -          -          -          -          -          -          -          -          -          -          -
  distributiondivin:          2        160        323          4         58         79        130      104.5          0          -          -          -          -
  farkasdiving     :          0          -          -          -          -          -          -          -          -          -          -          -          -
  fracdiving       :          2        214      15017          3        128        129        132      130.5          0          -          -          -          -
  guideddiving     :          0          -          -          -          -          -          -          -          -          -          -          -          -
  linesearchdiving :          2        135       1749          5        174         80        160      120.0          0          -          -          -          -
  pscostdiving     :          2        286      11799          2        211        140        194      167.0          0          -          -          -          -
  veclendiving     :          2        103       1822          4         14         93         95       94.0          0          -          -          -          -
Neighborhoods      :      Calls  SetupTime  SolveTime SolveNodes       Sols       Best       Exp3  EpsGreedy        UCB TgtFixRate  Opt  Inf Node Stal  Sol  Usr Othr Actv
  rens             :          5       0.15       4.78         50          0          0    0.00000   -1.00000    0.38473      0.616    0    3    0    1    0    0    1    1
  rins             :          0       0.00       0.00          0          0          0    0.00000   -1.00000    0.06582      0.900    0    0    0    0    0    0    0    1
  mutation         :          0       0.00       0.00          0          0          0    0.00000   -1.00000    0.06582      0.900    0    0    0    0    0    0    0    1
  localbranching   :          0       0.00       0.00          0          0          0    0.00000   -1.00000    0.06582      0.900    0    0    0    0    0    0    0    1
  crossover        :          0       0.00       0.00          0          0          0    0.00000   -1.00000    0.04655      0.900    0    0    0    0    0    0    0    1
  proximity        :          0       0.00       0.00          0          0          0    0.00000   -1.00000    0.06582      0.900    0    0    0    0    0    0    0    1
  zeroobjective    :          0       0.00       0.00          0          0          0    0.00000   -1.00000    0.06582      0.900    0    0    0    0    0    0    0    1
  dins             :          0       0.00       0.00          0          0          0    0.00000   -1.00000    0.04655      0.900    0    0    0    0    0    0    0    1
LP                 :       Time      Calls Iterations  Iter/call   Iter/sec  Time-0-It Calls-0-It    ItLimit
  primal LP        :      57.69        380          0       0.00       0.00      57.69        380
  dual LP          :    5278.14      16271   18919150    1171.46    3584.44       0.43        121
  lex dual LP      :       0.00          0          0       0.00          -
  barrier LP       :       0.00          0          0       0.00          -       0.00          0
  resolve instable :       0.00          0          0       0.00          -
  diving/probing LP:      39.25         45      94242    2094.27    2401.07
  strong branching :    1714.75       8923    6193775     694.14    3612.06          -          -      10551
    (at root node) :          -         37      36915     997.70          -
  conflict analysis:       0.00          0          0       0.00          -
B&B Tree           :
  number of runs   :          1
  nodes            :      15254 (9244 internal, 6010 leaves)
  feasible leaves  :          0
  infeas. leaves   :       6009
  objective leaves :          0
  nodes (total)    :      15254 (9244 internal, 6010 leaves)
  nodes left       :       3155
  max depth        :         83
  max depth (total):         83
  backtracks       :       2505 (16.4%)
  early backtracks :          0 (0.0%)
  nodes exc. ref.  :      15253 (100.0%)
  delayed cutoffs  :         81
  repropagations   :      13388 (43388 domain reductions, 36 cutoffs)
  avg switch length:       5.49
  switching time   :      60.42
Root Node          :
  First LP value   : +9.99999999999999e-01
  First LP Iters   :      12289 (6571.66 Iter/sec)
  First LP Time    :       1.87
  Final Dual Bound : +1.00000000000001e+00
  Final Root Iters :     117056
  Root LP Estimate : +1.03236203518268e+00
Solution           :
  Solutions found  :          0 (0 improvements)
  Primal Bound     :          -
  Dual Bound       : +1.00000000000001e+00
  Gap              :   infinite
  Avg. Gap         :     100.00 % (720000.00 primal-dual integral)
  Tree Data        : 18489 nodes (15334 visited, 9244 inner, 6090 leaves, 3155 open), progress: 0.0336
Tree Estimation    :       estim       value       trend  resolution      smooth
  wbe              :      362824           -           -           -           -
  tree profile     : 33075208288           -           -           -           -
  gap              :       30668     0.00000     0.00000           8       30645
  progress         :       30668     0.03357     0.00000           8       30645
  leaf-frequency   :       77648     0.39715     0.00003           8       81038
  ssg              :       30668     1.00000    -0.00000           8       30645
  open-nodes       :       30668  3154.00000     0.72873           8       30645


SCIP> checksol

no feasible solution available

SCIP> write sol /local/tmp/bzfhende-tmpdir/bzfhende.miplib2017.168_peg-solitaire--a3.scip.M640.enable_treeprofile.sol

written solution information to file </local/tmp/bzfhende-tmpdir/bzfhende.miplib2017.168_peg-solitaire-a3.scip.M640.enable_treeprofile.sol>

SCIP> quit

Disabling tree profile data collection
Read MPS: 1
MIP has 4552 vars and 4587 constraints
Read SOL: 0
@04 1566497254
-----------------------------
Do 22. Aug 20:07:34 CEST 2019
-----------------------------

=ready=
